weeks =  10 ;
types =  5 ;
Order = [| 
0,0,0,0,0,0,0,0,0,1|
0,0,0,0,1,0,0,0,0,0|
0,0,0,0,0,1,0,0,1,0|
0,0,0,1,0,0,0,0,1,0|
0,0,0,1,0,0,0,0,0,1|];
storageCost =  10 ;
SetupCost = [| 0,149,134,110,137|
131,0,139,192,118|
128,115,0,195,196|
134,154,119,0,165|
169,118,117,140,0|];
